
Gurobi 10.0.2 (linux64, .NET) logging started Sat 19 Aug 2023 01:19:11 PM -03

Set parameter LogFile to value "burma14_3_1001_1001_2.log"
Set parameter TimeLimit to value 30

Gurobi 10.0.2 (linux64, .NET) logging started Sat 19 Aug 2023 01:24:13 PM -03

Set parameter LogFile to value "burma14_3_1001_1001_2.log"
Set parameter TimeLimit to value 30
